Route #1: 1 13 73 53 51 77 12 44 17 31 27 78 34 52 1 
Route #2: 1 1 7 21 40 3 33 1 
Route #3: 1 62 30 79 18 48 14 11 1 
Route #4: 1 71 28 2 68 23 74 1 
Route #5: 1 63 61 25 46 59 29 1 
Route #6: 1 42 66 67 38 32 50 76 72 54 1 
Route #7: 1 5 16 43 57 20 75 19 47 64 60 70 1 
Route #8: 1 49 58 4 9 55 56 65 35 26 15 39 1 
Route #9: 1 36 41 69 8 37 6 24 10 1 
Route #10: 1 45 22 1 

Cost 2129.76
Time 0.9179


 * Another infos *

 Iterations: 80 Time: 0.9179 sec - 0.0153 min - 0.0003 horas
0.0000 h 0.0153 min
Problem dimension: 80
